results_rootrelaxation/bin012_070_031.srr.sol
solution status: optimal solution found
objective value:                     9.66718995290424
_var691_                            0.331240188383046 	(obj:1)
_var698_                             0.50392464678179 	(obj:0)
_var708_                            0.563579277864992 	(obj:1)
_var717_                            0.370486656200942 	(obj:0)
_var725_                            0.163265306122449 	(obj:0)
_var726_                            0.271585557299844 	(obj:2)
_var729_                            0.164835164835164 	(obj:2)
_var732_                           0.0502354788069074 	(obj:2)
_var749_                            0.927786499215071 	(obj:0)
_var755_                            0.276295133437991 	(obj:0)
_var767_                            0.583987441130298 	(obj:0)
_var769_                            0.113029827315541 	(obj:0)
_var773_                           0.0549450549450549 	(obj:1)
_var776_                           0.0565149136577707 	(obj:1)
_var783_                           0.0612244897959182 	(obj:1)
_var787_                            0.470957613814757 	(obj:2)
_var802_                            0.342229199372056 	(obj:0)
_var807_                           0.0266875981161695 	(obj:2)
_var812_                            0.475667189952904 	(obj:2)
_var813_                            0.186813186813186 	(obj:0)
_var814_                            0.105180533751962 	(obj:0)
_var821_                            0.092621664050235 	(obj:0)
_var834_                           0.0690737833594972 	(obj:2)
_var836_                            0.232339089481946 	(obj:2)
_var839_                            0.346938775510205 	(obj:0)
_var840_                             0.17425431711146 	(obj:2)
_var848_                            0.021978021978022 	(obj:1)
_var849_                            0.416012558869702 	(obj:0)
_var852_                            0.243328100470957 	(obj:1)
_var854_                           0.0219780219780221 	(obj:1)
_var855_                            0.254317111459968 	(obj:3)
_var860_                           0.0533751962323391 	(obj:1)
_var861_                            0.323390894819466 	(obj:1)
_var865_                           0.0156985871271594 	(obj:0)
_var871_                            0.051805337519623 	(obj:1)
_var876_                            0.161695447409734 	(obj:1)
_var884_                           0.0832025117739402 	(obj:2)
_var887_                            0.351648351648351 	(obj:1)
_var888_                           0.0722135007849294 	(obj:0)
_var890_                            0.390894819466247 	(obj:1)
_var891_                           0.0502354788069074 	(obj:0)
_var892_                           0.0470957613814763 	(obj:0)
_var895_                            0.021978021978022 	(obj:0)
_var896_                            0.270015698587127 	(obj:3)
_var901_                            0.087912087912088 	(obj:0)
_var903_                            0.070643642072213 	(obj:1)
_var904_                          0.00156985871271566 	(obj:3)
_var905_                           0.0800627943485083 	(obj:0)
_var906_                           0.0737833594976457 	(obj:3)
_var907_                             0.19309262166405 	(obj:0)
_var909_                           0.0800627943485082 	(obj:1)
_var910_                           0.0722135007849291 	(obj:0)
_var911_                            0.150706436420722 	(obj:3)
_var913_                           0.0894819466248037 	(obj:1)
_var915_                           0.0219780219780221 	(obj:3)
_var917_                           0.0675039246467822 	(obj:1)
_var920_                           0.0502354788069074 	(obj:3)
_var922_                           0.0722135007849294 	(obj:2)
_var924_                          0.00156985871271643 	(obj:1)
_var925_                           0.0204081632653056 	(obj:1)
