results_rootrelaxation/bin012_070_031.srr.log
SCIP version 8.0.3.5 [precision: 8 byte] [memory: block] [mode: optimized] [LP solver: Soplex 6.0.1.3] [GitHash: 438792519e]
Copyright (c) 2002-2023 Zuse Institute Berlin (ZIB)

External libraries: 
  Readline 8.1         GNU library for command line editing (gnu.org/s/readline)
  Soplex 6.0.1.3       Linear Programming Solver developed at Zuse Institute Berlin (soplex.zib.de) [GitHash: 713be0fe]
  CppAD 20180000.0     Algorithmic Differentiation of C++ algorithms developed by B. Bell (github.com/coin-or/CppAD)
  ZLIB 1.2.11          General purpose compression library by J. Gailly and M. Adler (zlib.net)
  bliss 0.77           Computing Graph Automorphism Groups by T. Junttila and P. Kaski (www.tcs.hut.fi/Software/bliss/)

user parameter file <scip.set> not found - using default parameters

srr/relaxation = TRUE

read problem <instances/bin012_070_031.srr>
============

Original problem: 
original problem has 0 variables (0 bin, 0 int, 0 impl, 0 cont) and 77 constraints

presolving:
presolving (1 rounds: 1 fast, 1 medium, 1 exhaustive):
 0 deleted vars, 0 deleted constraints, 0 added constraints, 0 tightened bounds, 0 added holes, 0 changed sides, 0 changed coefficients
 0 implications, 0 cliques
presolved problem has 0 variables (0 bin, 0 int, 0 impl, 0 cont) and 77 constraints
     77 constraints of type <linear>
Presolving Time: 0.00

 time | node  | left  |LP iter|LP it/n|mem/heur|mdpt |vars |cons |rows |cuts |sepa|confs|strbr|  dualbound   | primalbound  |  gap   | compl. 
  0.0s|     1 |     0 |     1 |     - |   710k |   0 |   1 |  77 |  77 |   0 |  0 |   0 |   0 |      --      |      --      |    Inf | unknown
r 0.0s|     1 |     0 |  1234 |     - |simplero|   0 | 671 |  77 |  77 |   0 |  0 |   0 |   0 |      --      | 2.847440e+01 |    Inf | unknown
r 0.0s|     1 |     0 |  1266 |     - |simplero|   0 | 682 |  77 |  77 |   0 |  0 |   0 |   0 |      --      | 2.730832e+01 |    Inf | unknown
r 0.1s|     1 |     0 |  1314 |     - |simplero|   0 | 693 |  77 |  77 |   0 |  0 |   0 |   0 |      --      | 2.589907e+01 |    Inf | unknown
r 0.1s|     1 |     0 |  1378 |     - |simplero|   0 | 704 |  77 |  77 |   0 |  0 |   0 |   0 |      --      | 2.250529e+01 |    Inf | unknown
r 0.1s|     1 |     0 |  1441 |     - |simplero|   0 | 715 |  77 |  77 |   0 |  0 |   0 |   0 |      --      | 2.047286e+01 |    Inf | unknown
r 0.1s|     1 |     0 |  1503 |     - |simplero|   0 | 726 |  77 |  77 |   0 |  0 |   0 |   0 |      --      | 1.924400e+01 |    Inf | unknown
r 0.1s|     1 |     0 |  1565 |     - |simplero|   0 | 737 |  77 |  77 |   0 |  0 |   0 |   0 |      --      | 1.799838e+01 |    Inf | unknown
r 0.1s|     1 |     0 |  1607 |     - |simplero|   0 | 748 |  77 |  77 |   0 |  0 |   0 |   0 |      --      | 1.688069e+01 |    Inf | unknown
r 0.1s|     1 |     0 |  1643 |     - |simplero|   0 | 759 |  77 |  77 |   0 |  0 |   0 |   0 |      --      | 1.580565e+01 |    Inf | unknown
r 0.1s|     1 |     0 |  1667 |     - |simplero|   0 | 759 |  77 |  77 |   0 |  0 |   0 |   0 |      --      | 1.557452e+01 |    Inf | unknown
r 0.1s|     1 |     0 |  1686 |     - |simplero|   0 | 759 |  77 |  77 |   0 |  0 |   0 |   0 |      --      | 1.541376e+01 |    Inf | unknown
r 0.1s|     1 |     0 |  1742 |     - |simplero|   0 | 770 |  77 |  77 |   0 |  0 |   0 |   0 |      --      | 1.378121e+01 |    Inf | unknown
r 0.1s|     1 |     0 |  1752 |     - |simplero|   0 | 770 |  77 |  77 |   0 |  0 |   0 |   0 |      --      | 1.368242e+01 |    Inf | unknown
r 0.1s|     1 |     0 |  1754 |     - |simplero|   0 | 770 |  77 |  77 |   0 |  0 |   0 |   0 |      --      | 1.368013e+01 |    Inf | unknown
 time | node  | left  |LP iter|LP it/n|mem/heur|mdpt |vars |cons |rows |cuts |sepa|confs|strbr|  dualbound   | primalbound  |  gap   | compl. 
r 0.1s|     1 |     0 |  1783 |     - |simplero|   0 | 781 |  77 |  77 |   0 |  0 |   0 |   0 |      --      | 1.295187e+01 |    Inf | unknown
r 0.1s|     1 |     0 |  1792 |     - |simplero|   0 | 781 |  77 |  77 |   0 |  0 |   0 |   0 |      --      | 1.291329e+01 |    Inf | unknown
r 0.1s|     1 |     0 |  1801 |     - |simplero|   0 | 781 |  77 |  77 |   0 |  0 |   0 |   0 |      --      | 1.285460e+01 |    Inf | unknown
r 0.1s|     1 |     0 |  1808 |     - |simplero|   0 | 781 |  77 |  77 |   0 |  0 |   0 |   0 |      --      | 1.284637e+01 |    Inf | unknown
r 0.1s|     1 |     0 |  1810 |     - |simplero|   0 | 781 |  77 |  77 |   0 |  0 |   0 |   0 |      --      | 1.284602e+01 |    Inf | unknown
r 0.1s|     1 |     0 |  1849 |     - |simplero|   0 | 792 |  77 |  77 |   0 |  0 |   0 |   0 |      --      | 1.210252e+01 |    Inf | unknown
r 0.1s|     1 |     0 |  1862 |     - |simplero|   0 | 792 |  77 |  77 |   0 |  0 |   0 |   0 |      --      | 1.201944e+01 |    Inf | unknown
r 0.1s|     1 |     0 |  1866 |     - |simplero|   0 | 792 |  77 |  77 |   0 |  0 |   0 |   0 |      --      | 1.201819e+01 |    Inf | unknown
r 0.1s|     1 |     0 |  1868 |     - |simplero|   0 | 792 |  77 |  77 |   0 |  0 |   0 |   0 |      --      | 1.201813e+01 |    Inf | unknown
r 0.1s|     1 |     0 |  1912 |     - |simplero|   0 | 803 |  77 |  77 |   0 |  0 |   0 |   0 |      --      | 1.143194e+01 |    Inf | unknown
r 0.1s|     1 |     0 |  1915 |     - |simplero|   0 | 803 |  77 |  77 |   0 |  0 |   0 |   0 |      --      | 1.143043e+01 |    Inf | unknown
r 0.1s|     1 |     0 |  1952 |     - |simplero|   0 | 814 |  77 |  77 |   0 |  0 |   0 |   0 |      --      | 1.112375e+01 |    Inf | unknown
r 0.1s|     1 |     0 |  1954 |     - |simplero|   0 | 814 |  77 |  77 |   0 |  0 |   0 |   0 |      --      | 1.112200e+01 |    Inf | unknown
r 0.1s|     1 |     0 |  1956 |     - |simplero|   0 | 814 |  77 |  77 |   0 |  0 |   0 |   0 |      --      | 1.111944e+01 |    Inf | unknown
r 0.1s|     1 |     0 |  1957 |     - |simplero|   0 | 814 |  77 |  77 |   0 |  0 |   0 |   0 |      --      | 1.111930e+01 |    Inf | unknown
 time | node  | left  |LP iter|LP it/n|mem/heur|mdpt |vars |cons |rows |cuts |sepa|confs|strbr|  dualbound   | primalbound  |  gap   | compl. 
r 0.1s|     1 |     0 |  2000 |     - |simplero|   0 | 825 |  77 |  77 |   0 |  0 |   0 |   0 |      --      | 1.080477e+01 |    Inf | unknown
r 0.1s|     1 |     0 |  2016 |     - |simplero|   0 | 825 |  77 |  77 |   0 |  0 |   0 |   0 |      --      | 1.074751e+01 |    Inf | unknown
r 0.1s|     1 |     0 |  2037 |     - |simplero|   0 | 836 |  77 |  77 |   0 |  0 |   0 |   0 |      --      | 1.057401e+01 |    Inf | unknown
r 0.1s|     1 |     0 |  2063 |     - |simplero|   0 | 847 |  77 |  77 |   0 |  0 |   0 |   0 |      --      | 1.043045e+01 |    Inf | unknown
r 0.1s|     1 |     0 |  2071 |     - |simplero|   0 | 847 |  77 |  77 |   0 |  0 |   0 |   0 |      --      | 1.041089e+01 |    Inf | unknown
  0.1s|     1 |     0 |  2107 |     - |  4161k |   0 | 858 |  77 |  77 |   0 |  0 |   0 |   0 |      --      | 1.041089e+01 |    Inf | unknown
r 0.1s|     1 |     0 |  2107 |     - |simplero|   0 | 858 |  77 |  77 |   0 |  0 |   0 |   0 |      --      | 1.005787e+01 |    Inf | unknown
r 0.1s|     1 |     0 |  2109 |     - |simplero|   0 | 858 |  77 |  77 |   0 |  0 |   0 |   0 |      --      | 1.005498e+01 |    Inf | unknown
r 0.1s|     1 |     0 |  2111 |     - |simplero|   0 | 858 |  77 |  77 |   0 |  0 |   0 |   0 |      --      | 1.005468e+01 |    Inf | unknown
r 0.1s|     1 |     0 |  2132 |     - |simplero|   0 | 869 |  77 |  77 |   0 |  0 |   0 |   0 |      --      | 9.983651e+00 |    Inf | unknown
r 0.1s|     1 |     0 |  2154 |     - |simplero|   0 | 880 |  77 |  77 |   0 |  0 |   0 |   0 |      --      | 9.902287e+00 |    Inf | unknown
r 0.1s|     1 |     0 |  2157 |     - |simplero|   0 | 880 |  77 |  77 |   0 |  0 |   0 |   0 |      --      | 9.900961e+00 |    Inf | unknown
r 0.1s|     1 |     0 |  2159 |     - |simplero|   0 | 880 |  77 |  77 |   0 |  0 |   0 |   0 |      --      | 9.899244e+00 |    Inf | unknown
r 0.1s|     1 |     0 |  2183 |     - |simplero|   0 | 890 |  77 |  77 |   0 |  0 |   0 |   0 |      --      | 9.821444e+00 |    Inf | unknown
r 0.1s|     1 |     0 |  2186 |     - |simplero|   0 | 890 |  77 |  77 |   0 |  0 |   0 |   0 |      --      | 9.820137e+00 |    Inf | unknown
 time | node  | left  |LP iter|LP it/n|mem/heur|mdpt |vars |cons |rows |cuts |sepa|confs|strbr|  dualbound   | primalbound  |  gap   | compl. 
r 0.1s|     1 |     0 |  2200 |     - |simplero|   0 | 901 |  77 |  77 |   0 |  0 |   0 |   0 |      --      | 9.772222e+00 |    Inf | unknown
r 0.1s|     1 |     0 |  2204 |     - |simplero|   0 | 901 |  77 |  77 |   0 |  0 |   0 |   0 |      --      | 9.765766e+00 |    Inf | unknown
r 0.1s|     1 |     0 |  2206 |     - |simplero|   0 | 901 |  77 |  77 |   0 |  0 |   0 |   0 |      --      | 9.765403e+00 |    Inf | unknown
r 0.1s|     1 |     0 |  2225 |     - |simplero|   0 | 908 |  77 |  77 |   0 |  0 |   0 |   0 |      --      | 9.716435e+00 |    Inf | unknown
r 0.1s|     1 |     0 |  2235 |     - |simplero|   0 | 908 |  77 |  77 |   0 |  0 |   0 |   0 |      --      | 9.709394e+00 |    Inf | unknown
r 0.1s|     1 |     0 |  2237 |     - |simplero|   0 | 908 |  77 |  77 |   0 |  0 |   0 |   0 |      --      | 9.708911e+00 |    Inf | unknown
r 0.1s|     1 |     0 |  2251 |     - |simplero|   0 | 915 |  77 |  77 |   0 |  0 |   0 |   0 |      --      | 9.679042e+00 |    Inf | unknown
r 0.1s|     1 |     0 |  2254 |     - |simplero|   0 | 915 |  77 |  77 |   0 |  0 |   0 |   0 |      --      | 9.676515e+00 |    Inf | unknown
r 0.1s|     1 |     0 |  2261 |     - |simplero|   0 | 921 |  77 |  77 |   0 |  0 |   0 |   0 |      --      | 9.668831e+00 |    Inf | unknown
r 0.1s|     1 |     0 |  2266 |     - |simplero|   0 | 925 |  77 |  77 |   0 |  0 |   0 |   0 |      --      | 9.667308e+00 |    Inf | unknown
r 0.1s|     1 |     0 |  2267 |     - |simplero|   0 | 926 |  77 |  77 |   0 |  0 |   0 |   0 |      --      | 9.667190e+00 |    Inf | unknown
  0.1s|     1 |     0 |  2267 |     - |  4420k |   0 | 926 |  77 |  77 |   0 |  0 |   0 |   0 | 9.667190e+00 | 9.667190e+00 |   0.00%| unknown
  0.1s|     1 |     0 |  2267 |     - |  4420k |   0 | 926 |  77 |  77 |   0 |  0 |   0 |   0 | 9.667190e+00 | 9.667190e+00 |   0.00%| unknown

SCIP Status        : problem is solved [optimal solution found]
Solving Time (sec) : 0.10
Solving Nodes      : 1
Primal Bound       : +9.66718995290424e+00 (54 solutions)
Dual Bound         : +9.66718995290424e+00
Gap                : 0.00 %

written transformed problem to file <results_rootrelaxation/bin012_070_031.srr.lp>
written transformed problem to file <results_rootrelaxation/bin012_070_031.srr.cip>

written solution information to file <results_rootrelaxation/bin012_070_031.srr.sol>



